tolerance 2.5
seed -1
filetype xyz
output simbox.xyz

# 五层 COF：沿 z 间隔 3.4 Å；奇偶层绕 z 交替旋转 π（≈180°），减轻 AA 磺酸重叠
# 文件名以搭建盒子 ① 生成的 *_pack.xyz 为准（本例为 COF_ff_trans_trans_pack.xyz）
# fixed x y z  α β γ  → 后三个为绕 x/y/z 的转角，单位是弧度（不是度）
structure COF_ff_trans_trans_pack.xyz
  number 1
  center
  fixed 0. 0. -6.8  0 0 0
end structure

structure COF_ff_trans_trans_pack.xyz
  number 1
  center
  fixed 0. 0. -3.4  0 0 3.141593
end structure

structure COF_ff_trans_trans_pack.xyz
  number 1
  center
  fixed 0. 0.  0.0  0 0 0
end structure

structure COF_ff_trans_trans_pack.xyz
  number 1
  center
  fixed 0. 0.  3.4  0 0 3.141593
end structure

structure COF_ff_trans_trans_pack.xyz
  number 1
  center
  fixed 0. 0.  6.8  0 0 0
end structure

# 水（1000）；inside box 半宽按 a/b 与 c=50 估算，再相对盒边内收约 1.5 Å 预留空隙
structure spce_pack.xyz
  number 1000
  inside box -9.8 -18.0 -23.5  9.8 18.0 23.5
end structure

# 反离子 Na+（约中和五层总电荷 −30）；与水同一填装区
structure Na_pack.xyz
  number 30
  inside box -9.8 -18.0 -23.5  9.8 18.0 23.5
end structure